# Objective value = 86
w_0_MJ 0
y_1_MJ_BO 0
y_1_MJ_CL 0
y_1_MJ_BE 1
y_1_MJ_SB 0
y_1_MJ_NA 0
y_1_MJ_SQ 0
y_1_BO_CL 0
y_1_BO_BE 0
y_1_BO_SB 0
y_1_BO_NA 0
y_1_BO_SQ 0
y_1_CL_BE 0
y_1_CL_SB 0
y_1_CL_NA 0
y_1_CL_SQ 0
y_1_BE_SB 0
y_1_BE_NA 0
y_1_BE_SQ 0
y_1_SB_NA 0
y_1_SB_SQ 0
y_1_NA_SQ 0
w_1_MJ 2
w_1_BO 0
w_1_CL 0
w_1_BE 15
w_1_SB 0
w_1_NA 0
w_1_SQ 0
y_2_MJ_BO 0
y_2_MJ_CL 0
y_2_MJ_BE 0
y_2_MJ_SB 0
y_2_MJ_NA 0
y_2_MJ_SQ 0
y_2_BO_CL 0
y_2_BO_BE 0
y_2_BO_SB 0
y_2_BO_NA 0
y_2_BO_SQ 0
y_2_CL_BE 0
y_2_CL_SB 0
y_2_CL_NA 0
y_2_CL_SQ 0
y_2_BE_SB 0
y_2_BE_NA 0
y_2_BE_SQ 0
y_2_SB_NA 0
y_2_SB_SQ 0
y_2_NA_SQ 0
w_2_MJ 0
w_2_BO 0
w_2_CL 0
w_2_BE 0
w_2_SB 0
w_2_NA 0
w_2_SQ 0
y_3_MJ_BO 0
y_3_MJ_CL 0
y_3_MJ_BE 1
y_3_MJ_SB 0
y_3_MJ_NA 0
y_3_MJ_SQ 0
y_3_BO_CL 0
y_3_BO_BE 0
y_3_BO_SB 0
y_3_BO_NA 0
y_3_BO_SQ 0
y_3_CL_BE 0
y_3_CL_SB 0
y_3_CL_NA 0
y_3_CL_SQ 0
y_3_BE_SB 0
y_3_BE_NA 0
y_3_BE_SQ 0
y_3_SB_NA 0
y_3_SB_SQ 0
y_3_NA_SQ 0
w_3_MJ 1
w_3_BO 0
w_3_CL 0
w_3_BE 1
w_3_SB 0
w_3_NA 0
w_3_SQ 0
y_4_MJ_BO 0
y_4_MJ_CL 0
y_4_MJ_BE 0
y_4_MJ_SB 0
y_4_MJ_NA 0
y_4_MJ_SQ 0
y_4_BO_CL 0
y_4_BO_BE 0
y_4_BO_SB 0
y_4_BO_NA 0
y_4_BO_SQ 0
y_4_CL_BE 0
y_4_CL_SB 0
y_4_CL_NA 0
y_4_CL_SQ 0
y_4_BE_SB 0
y_4_BE_NA 0
y_4_BE_SQ 0
y_4_SB_NA 0
y_4_SB_SQ 0
y_4_NA_SQ 0
w_4_MJ 0
w_4_BO 0
w_4_CL 0
w_4_BE 0
w_4_SB 0
w_4_NA 0
w_4_SQ 0
y_5_MJ_BO 0
y_5_MJ_CL 0
y_5_MJ_BE 0
y_5_MJ_SB 0
y_5_MJ_NA 0
y_5_MJ_SQ 0
y_5_BO_CL 0
y_5_BO_BE 0
y_5_BO_SB 0
y_5_BO_NA 0
y_5_BO_SQ 0
y_5_CL_BE 0
y_5_CL_SB 0
y_5_CL_NA 0
y_5_CL_SQ 0
y_5_BE_SB 0
y_5_BE_NA 0
y_5_BE_SQ 0
y_5_SB_NA 0
y_5_SB_SQ 0
y_5_NA_SQ 0
w_5_MJ 0
w_5_BO 0
w_5_CL 0
w_5_BE 0
w_5_SB 0
w_5_NA 0
w_5_SQ 0
y_6_MJ_BO 0
y_6_MJ_CL 0
y_6_MJ_BE 0
y_6_MJ_SB 0
y_6_MJ_NA 0
y_6_MJ_SQ 0
y_6_BO_CL 0
y_6_BO_BE 0
y_6_BO_SB 0
y_6_BO_NA 0
y_6_BO_SQ 0
y_6_CL_BE 0
y_6_CL_SB 0
y_6_CL_NA 0
y_6_CL_SQ 0
y_6_BE_SB 0
y_6_BE_NA 0
y_6_BE_SQ 0
y_6_SB_NA 0
y_6_SB_SQ 1
y_6_NA_SQ 1
w_6_MJ 0
w_6_BO 0
w_6_CL 0
w_6_BE 0
w_6_SB 1
w_6_NA 1
w_6_SQ 2
y_7_MJ_BO 0
y_7_MJ_CL 1
y_7_MJ_BE 1
y_7_MJ_SB 0
y_7_MJ_NA 0
y_7_MJ_SQ 0
y_7_BO_CL 0
y_7_BO_BE 0
y_7_BO_SB 0
y_7_BO_NA 0
y_7_BO_SQ 0
y_7_CL_BE 0
y_7_CL_SB 0
y_7_CL_NA 0
y_7_CL_SQ 0
y_7_BE_SB 0
y_7_BE_NA 0
y_7_BE_SQ 0
y_7_SB_NA 0
y_7_SB_SQ 1
y_7_NA_SQ 1
w_7_MJ 3
w_7_BO 1
w_7_CL 0
w_7_BE 0
w_7_SB 0
w_7_NA 0
w_7_SQ 3
y_8_BO_CL 0
y_8_BO_BE 0
y_8_BO_SB 0
y_8_BO_NA 0
y_8_BO_SQ 0
y_8_CL_BE 1
y_8_CL_SB 0
y_8_CL_NA 0
y_8_CL_SQ 0
y_8_BE_SB 0
y_8_BE_NA 0
y_8_BE_SQ 0
y_8_SB_NA 0
y_8_SB_SQ 0
y_8_NA_SQ 0
w_8_BO 0
w_8_CL 0
w_8_BE 2
w_8_SB 0
w_8_NA 0
w_8_SQ 0
y_9_BO_CL 0
y_9_BO_BE 0
y_9_BO_SB 0
y_9_BO_NA 0
y_9_BO_SQ 0
y_9_CL_BE 0
y_9_CL_SB 0
y_9_CL_NA 0
y_9_CL_SQ 0
y_9_BE_SB 0
y_9_BE_NA 0
y_9_BE_SQ 0
y_9_SB_NA 0
y_9_SB_SQ 0
y_9_NA_SQ 0
w_9_BO 0
w_9_CL 0
w_9_BE 0
w_9_SB 0
w_9_NA 0
w_9_SQ 1
y_10_BO_CL 0
y_10_BO_BE 0
y_10_BO_SB 0
y_10_BO_NA 0
y_10_BO_SQ 0
y_10_BO_DO 0
y_10_CL_BE 0
y_10_CL_SB 0
y_10_CL_NA 0
y_10_CL_SQ 0
y_10_CL_DO 0
y_10_BE_SB 0
y_10_BE_NA 0
y_10_BE_SQ 0
y_10_BE_DO 0
y_10_SB_NA 0
y_10_SB_SQ 0
y_10_SB_DO 0
y_10_NA_SQ 0
y_10_NA_DO 0
y_10_SQ_DO 0
w_10_BO 0
w_10_CL 0
w_10_BE 0
w_10_SB 0
w_10_NA 0
w_10_SQ 0
w_10_DO 0
y_11_BO_CL 0
y_11_BO_BE 0
y_11_BO_NA 0
y_11_BO_SQ 0
y_11_BO_DO 0
y_11_CL_BE 0
y_11_CL_NA 0
y_11_CL_SQ 0
y_11_CL_DO 0
y_11_BE_NA 0
y_11_BE_SQ 0
y_11_BE_DO 0
y_11_NA_SQ 0
y_11_NA_DO 0
y_11_SQ_DO 1
w_11_BO 0
w_11_CL 0
w_11_BE 0
w_11_NA 1
w_11_SQ 2
w_11_DO 0
y_12_BO_CL 0
y_12_BO_BE 0
y_12_BO_NA 0
y_12_BO_SQ 0
y_12_BO_DO 0
y_12_CL_BE 0
y_12_CL_NA 0
y_12_CL_SQ 0
y_12_CL_DO 0
y_12_BE_NA 0
y_12_BE_SQ 0
y_12_BE_DO 0
y_12_NA_SQ 0
y_12_NA_DO 0
y_12_SQ_DO 0
w_12_BO 0
w_12_CL 0
w_12_BE 0
w_12_NA 0
w_12_SQ 0
w_12_DO 0
y_13_BO_CL 0
y_13_BO_BE 0
y_13_BO_NA 0
y_13_BO_SQ 0
y_13_BO_DO 0
y_13_CL_BE 0
y_13_CL_NA 0
y_13_CL_SQ 0
y_13_CL_DO 0
y_13_BE_NA 0
y_13_BE_SQ 0
y_13_BE_DO 0
y_13_NA_SQ 0
y_13_NA_DO 0
y_13_SQ_DO 0
w_13_BO 0
w_13_CL 0
w_13_BE 0
w_13_NA 0
w_13_SQ 0
w_13_DO 0
y_14_BO_CL 0
y_14_BO_BE 0
y_14_BO_NA 0
y_14_BO_SQ 0
y_14_BO_DO 0
y_14_CL_BE 0
y_14_CL_NA 0
y_14_CL_SQ 0
y_14_CL_DO 0
y_14_BE_NA 0
y_14_BE_SQ 0
y_14_BE_DO 0
y_14_NA_SQ 0
y_14_NA_DO 0
y_14_SQ_DO 0
w_14_BO 0
w_14_CL 0
w_14_BE 0
w_14_NA 0
w_14_SQ 0
w_14_DO 0
y_15_BO_CL 0
y_15_BO_BE 0
y_15_BO_NA 0
y_15_BO_SQ 0
y_15_BO_DO 0
y_15_CL_BE 0
y_15_CL_NA 0
y_15_CL_SQ 0
y_15_CL_DO 0
y_15_BE_NA 0
y_15_BE_SQ 0
y_15_BE_DO 0
y_15_NA_SQ 0
y_15_NA_DO 0
y_15_SQ_DO 0
w_15_BO 0
w_15_CL 0
w_15_BE 0
w_15_NA 0
w_15_SQ 0
w_15_DO 0
y_16_BO_CL 0
y_16_BO_BE 0
y_16_BO_NA 0
y_16_BO_SQ 0
y_16_BO_DO 0
y_16_CL_BE 0
y_16_CL_NA 0
y_16_CL_SQ 0
y_16_CL_DO 0
y_16_BE_NA 0
y_16_BE_SQ 0
y_16_BE_DO 0
y_16_NA_SQ 1
y_16_NA_DO 0
y_16_SQ_DO 0
w_16_BO 0
w_16_CL 0
w_16_BE 0
w_16_NA 1
w_16_SQ 2
w_16_DO 1
y_17_BO_CL 0
y_17_BO_BE 0
y_17_BO_NA 0
y_17_BO_SQ 1
y_17_BO_DO 0
y_17_BO_HE 0
y_17_CL_BE 0
y_17_CL_NA 0
y_17_CL_SQ 0
y_17_CL_DO 0
y_17_CL_HE 0
y_17_BE_NA 0
y_17_BE_SQ 1
y_17_BE_DO 0
y_17_BE_HE 0
y_17_NA_SQ 0
y_17_NA_DO 0
y_17_NA_HE 0
y_17_SQ_DO 0
y_17_SQ_HE 0
y_17_DO_HE 0
w_17_BO 1
w_17_CL 0
w_17_BE 1
w_17_NA 0
w_17_SQ 2
w_17_DO 0
w_17_HE 0
y_18_BO_CL 0
y_18_BO_BE 0
y_18_BO_NA 0
y_18_BO_SQ 0
y_18_BO_DO 0
y_18_BO_HE 0
y_18_CL_BE 0
y_18_CL_NA 0
y_18_CL_SQ 0
y_18_CL_DO 0
y_18_CL_HE 0
y_18_BE_NA 0
y_18_BE_SQ 0
y_18_BE_DO 0
y_18_BE_HE 0
y_18_NA_SQ 0
y_18_NA_DO 0
y_18_NA_HE 0
y_18_SQ_DO 0
y_18_SQ_HE 0
y_18_DO_HE 0
w_18_BO 0
w_18_CL 0
w_18_BE 0
w_18_NA 0
w_18_SQ 0
w_18_DO 0
w_18_HE 0
y_19_BO_CL 0
y_19_BO_BE 0
y_19_BO_NA 0
y_19_BO_SQ 0
y_19_BO_DO 0
y_19_BO_SP 0
y_19_CL_BE 0
y_19_CL_NA 0
y_19_CL_SQ 0
y_19_CL_DO 0
y_19_CL_SP 0
y_19_BE_NA 0
y_19_BE_SQ 0
y_19_BE_DO 0
y_19_BE_SP 0
y_19_NA_SQ 0
y_19_NA_DO 0
y_19_NA_SP 0
y_19_SQ_DO 0
y_19_SQ_SP 0
y_19_DO_SP 0
w_19_BO 0
w_19_CL 0
w_19_BE 0
w_19_NA 0
w_19_SQ 0
w_19_DO 1
w_19_SP 1
y_20_BO_CL 0
y_20_BO_BE 0
y_20_BO_NA 0
y_20_BO_SQ 0
y_20_BO_DO 0
y_20_BO_SP 0
y_20_CL_BE 0
y_20_CL_NA 0
y_20_CL_SQ 0
y_20_CL_DO 0
y_20_CL_SP 0
y_20_BE_NA 0
y_20_BE_SQ 0
y_20_BE_DO 0
y_20_BE_SP 0
y_20_NA_SQ 0
y_20_NA_DO 0
y_20_NA_SP 0
y_20_SQ_DO 0
y_20_SQ_SP 0
y_20_DO_SP 0
w_20_BO 0
w_20_CL 0
w_20_BE 0
w_20_NA 0
w_20_SQ 0
w_20_DO 0
w_20_SP 0
y_21_BO_CL 0
y_21_BO_BE 0
y_21_BO_NA 0
y_21_BO_SQ 0
y_21_BO_DO 0
y_21_BO_SP 0
y_21_CL_BE 0
y_21_CL_NA 0
y_21_CL_SQ 0
y_21_CL_DO 0
y_21_CL_SP 0
y_21_BE_NA 0
y_21_BE_SQ 1
y_21_BE_DO 0
y_21_BE_SP 0
y_21_NA_SQ 0
y_21_NA_DO 0
y_21_NA_SP 0
y_21_SQ_DO 0
y_21_SQ_SP 0
y_21_DO_SP 0
w_21_BO 0
w_21_CL 0
w_21_BE 1
w_21_NA 0
w_21_SQ 1
w_21_DO 1
w_21_SP 1
y_22_BO_CL 0
y_22_BO_BE 0
y_22_BO_NA 0
y_22_BO_SQ 0
y_22_BO_SP 0
y_22_BO_FR 0
y_22_CL_BE 0
y_22_CL_NA 0
y_22_CL_SQ 0
y_22_CL_SP 0
y_22_CL_FR 0
y_22_BE_NA 0
y_22_BE_SQ 0
y_22_BE_SP 0
y_22_BE_FR 0
y_22_NA_SQ 0
y_22_NA_SP 0
y_22_NA_FR 0
y_22_SQ_SP 0
y_22_SQ_FR 0
y_22_SP_FR 0
w_22_BO 0
w_22_CL 0
w_22_BE 0
w_22_NA 0
w_22_SQ 0
w_22_SP 1
w_22_FR 0
y_23_BO_CL 0
y_23_BO_BE 0
y_23_BO_NA 0
y_23_BO_SQ 0
y_23_BO_SP 0
y_23_BO_FR 0
y_23_CL_BE 0
y_23_CL_NA 0
y_23_CL_SQ 0
y_23_CL_SP 0
y_23_CL_FR 0
y_23_BE_NA 0
y_23_BE_SQ 0
y_23_BE_SP 0
y_23_BE_FR 0
y_23_NA_SQ 0
y_23_NA_SP 0
y_23_NA_FR 0
y_23_SQ_SP 0
y_23_SQ_FR 0
y_23_SP_FR 1
w_23_BO 0
w_23_CL 0
w_23_BE 0
w_23_NA 0
w_23_SQ 0
w_23_SP 1
w_23_FR 1
y_24_BO_CL 0
y_24_BO_BE 1
y_24_BO_NA 0
y_24_BO_SQ 1
y_24_BO_SP 0
y_24_BO_FR 0
y_24_CL_BE 0
y_24_CL_NA 0
y_24_CL_SQ 0
y_24_CL_SP 0
y_24_CL_FR 0
y_24_BE_NA 0
y_24_BE_SQ 0
y_24_BE_SP 0
y_24_BE_FR 0
y_24_NA_SQ 1
y_24_NA_SP 0
y_24_NA_FR 0
y_24_SQ_SP 0
y_24_SQ_FR 0
y_24_SP_FR 0
w_24_BO 2
w_24_CL 0
w_24_BE 1
w_24_NA 1
w_24_SQ 2
w_24_SP 0
w_24_FR 0
y_25_BO_CL 0
y_25_BO_BE 0
y_25_BO_NA 0
y_25_BO_SQ 0
y_25_BO_SP 0
y_25_BO_FR 0
y_25_CL_BE 0
y_25_CL_NA 0
y_25_CL_SQ 0
y_25_CL_SP 0
y_25_CL_FR 0
y_25_BE_NA 0
y_25_BE_SQ 0
y_25_BE_SP 0
y_25_BE_FR 0
y_25_NA_SQ 0
y_25_NA_SP 0
y_25_NA_FR 0
y_25_SQ_SP 0
y_25_SQ_FR 0
y_25_SP_FR 0
w_25_BO 0
w_25_CL 0
w_25_BE 0
w_25_NA 0
w_25_SQ 0
w_25_SP 0
w_25_FR 0
y_26_BO_CL 0
y_26_BO_BE 0
y_26_BO_NA 0
y_26_BO_SQ 0
y_26_BO_SP 0
y_26_BO_FR 0
y_26_CL_BE 0
y_26_CL_NA 0
y_26_CL_SQ 0
y_26_CL_SP 0
y_26_CL_FR 0
y_26_BE_NA 0
y_26_BE_SQ 0
y_26_BE_SP 0
y_26_BE_FR 0
y_26_NA_SQ 0
y_26_NA_SP 0
y_26_NA_FR 0
y_26_SQ_SP 0
y_26_SQ_FR 0
y_26_SP_FR 0
w_26_BO 0
w_26_CL 0
w_26_BE 0
w_26_NA 0
w_26_SQ 0
w_26_SP 0
w_26_FR 0
y_27_BO_CL 0
y_27_BO_BE 0
y_27_BO_NA 0
y_27_BO_SQ 0
y_27_BO_SP 0
y_27_BO_FR 0
y_27_CL_BE 0
y_27_CL_NA 0
y_27_CL_SQ 0
y_27_CL_SP 0
y_27_CL_FR 0
y_27_BE_NA 0
y_27_BE_SQ 0
y_27_BE_SP 0
y_27_BE_FR 0
y_27_NA_SQ 0
y_27_NA_SP 0
y_27_NA_FR 0
y_27_SQ_SP 0
y_27_SQ_FR 0
y_27_SP_FR 0
w_27_BO 0
w_27_CL 0
w_27_BE 0
w_27_NA 0
w_27_SQ 0
w_27_SP 0
w_27_FR 0
y_28_CL_BE 0
y_28_CL_NA 0
y_28_CL_SQ 0
y_28_CL_SP 0
y_28_CL_FR 0
y_28_BE_NA 0
y_28_BE_SQ 0
y_28_BE_SP 0
y_28_BE_FR 0
y_28_NA_SQ 0
y_28_NA_SP 0
y_28_NA_FR 0
y_28_SQ_SP 0
y_28_SQ_FR 0
y_28_SP_FR 0
w_28_CL 1
w_28_BE 0
w_28_NA 0
w_28_SQ 0
w_28_SP 0
w_28_FR 0
y_29_CL_BE 0
y_29_CL_NA 0
y_29_CL_SQ 0
y_29_CL_SP 0
y_29_CL_FR 0
y_29_BE_NA 0
y_29_BE_SQ 0
y_29_BE_SP 0
y_29_BE_FR 0
y_29_NA_SQ 0
y_29_NA_SP 0
y_29_NA_FR 0
y_29_SQ_SP 0
y_29_SQ_FR 0
y_29_SP_FR 0
w_29_CL 0
w_29_BE 0
w_29_NA 0
w_29_SQ 0
w_29_SP 1
w_29_FR 1
y_30_CL_BE 0
y_30_CL_NA 0
y_30_CL_SQ 0
y_30_CL_SP 0
y_30_CL_FR 0
y_30_BE_NA 0
y_30_BE_SQ 0
y_30_BE_SP 0
y_30_BE_FR 0
y_30_NA_SQ 0
y_30_NA_SP 0
y_30_NA_FR 0
y_30_SQ_SP 0
y_30_SQ_FR 0
y_30_SP_FR 0
w_30_CL 0
w_30_BE 0
w_30_NA 0
w_30_SQ 0
w_30_SP 1
w_30_FR 1
y_31_CL_BE 0
y_31_CL_NA 0
y_31_CL_SQ 0
y_31_CL_FR 0
y_31_BE_NA 0
y_31_BE_SQ 0
y_31_BE_FR 0
y_31_NA_SQ 0
y_31_NA_FR 0
y_31_SQ_FR 0
w_31_CL 0
w_31_BE 0
w_31_NA 0
w_31_SQ 0
w_31_FR 1
y_32_CL_BE 0
y_32_CL_NA 0
y_32_CL_SQ 0
y_32_CL_FR 0
y_32_BE_NA 0
y_32_BE_SQ 0
y_32_BE_FR 0
y_32_NA_SQ 0
y_32_NA_FR 0
y_32_SQ_FR 0
w_32_CL 0
w_32_BE 0
w_32_NA 0
w_32_SQ 0
w_32_FR 0
y_33_BE_NA 0
y_33_BE_SQ 0
y_33_BE_FR 0
y_33_NA_SQ 0
y_33_NA_FR 0
y_33_SQ_FR 0
w_33_BE 0
w_33_NA 0
w_33_SQ 0
w_33_FR 1
y_34_BE_NA 0
y_34_BE_SQ 0
y_34_BE_FR 0
y_34_NA_SQ 0
y_34_NA_FR 0
y_34_SQ_FR 0
w_34_BE 0
w_34_NA 0
w_34_SQ 0
w_34_FR 1
y_35_BE_NA 0
y_35_BE_SQ 0
y_35_BE_FR 0
y_35_NA_SQ 0
y_35_NA_FR 0
y_35_SQ_FR 0
w_35_BE 1
w_35_NA 0
w_35_SQ 0
w_35_FR 0
y_36_BE_NA 0
y_36_BE_SQ 0
y_36_BE_FR 0
y_36_BE_PI 0
y_36_NA_SQ 0
y_36_NA_FR 0
y_36_NA_PI 0
y_36_SQ_FR 0
y_36_SQ_PI 0
y_36_FR_PI 0
w_36_BE 0
w_36_NA 0
w_36_SQ 0
w_36_FR 0
w_36_PI 0
y_37_BE_NA 0
y_37_BE_SQ 0
y_37_BE_PI 0
y_37_NA_SQ 0
y_37_NA_PI 0
y_37_SQ_PI 0
w_37_BE 0
w_37_NA 0
w_37_SQ 0
w_37_PI 0
FairWiggle 0
x_1_MJ_BO 0
x_2_MJ_BO 0
x_1_MJ_CL 0
x_2_MJ_CL 0
x_1_MJ_BE 0
x_2_MJ_BE 1
x_1_MJ_SB 0
x_2_MJ_SB 0
x_1_MJ_NA 0
x_2_MJ_NA 0
x_1_MJ_SQ 0
x_2_MJ_SQ 0
x_1_BO_CL 1
x_2_BO_CL 1
x_1_BO_BE 1
x_2_BO_BE 1
x_1_BO_SB 0
x_2_BO_SB 0
x_1_BO_NA 0
x_2_BO_NA 0
x_1_BO_SQ 0
x_2_BO_SQ 0
x_1_CL_BE 1
x_2_CL_BE 1
x_1_CL_SB 0
x_2_CL_SB 0
x_1_CL_NA 0
x_2_CL_NA 0
x_1_CL_SQ 0
x_2_CL_SQ 0
x_1_BE_SB 0
x_2_BE_SB 0
x_1_BE_NA 0
x_2_BE_NA 0
x_1_BE_SQ 0
x_2_BE_SQ 0
x_1_SB_NA 0
x_2_SB_NA 0
x_1_SB_SQ 0
x_2_SB_SQ 0
x_1_NA_SQ 0
x_2_NA_SQ 0
x_3_MJ_BO 0
x_3_MJ_CL 0
x_3_MJ_BE 1
x_3_MJ_SB 0
x_3_MJ_NA 0
x_3_MJ_SQ 0
x_3_BO_CL 1
x_3_BO_BE 1
x_3_BO_SB 0
x_3_BO_NA 0
x_3_BO_SQ 0
x_3_CL_BE 1
x_3_CL_SB 0
x_3_CL_NA 0
x_3_CL_SQ 0
x_3_BE_SB 0
x_3_BE_NA 0
x_3_BE_SQ 0
x_3_SB_NA 0
x_3_SB_SQ 0
x_3_NA_SQ 0
x_4_MJ_BO 0
x_4_MJ_CL 0
x_4_MJ_BE 0
x_4_MJ_SB 0
x_4_MJ_NA 0
x_4_MJ_SQ 0
x_4_BO_CL 1
x_4_BO_BE 1
x_4_BO_SB 0
x_4_BO_NA 0
x_4_BO_SQ 0
x_4_CL_BE 1
x_4_CL_SB 0
x_4_CL_NA 0
x_4_CL_SQ 0
x_4_BE_SB 0
x_4_BE_NA 0
x_4_BE_SQ 0
x_4_SB_NA 0
x_4_SB_SQ 0
x_4_NA_SQ 0
x_5_MJ_BO 0
x_5_MJ_CL 0
x_5_MJ_BE 0
x_5_MJ_SB 0
x_5_MJ_NA 0
x_5_MJ_SQ 0
x_5_BO_CL 1
x_5_BO_BE 1
x_5_BO_SB 0
x_5_BO_NA 0
x_5_BO_SQ 0
x_5_CL_BE 1
x_5_CL_SB 0
x_5_CL_NA 0
x_5_CL_SQ 0
x_5_BE_SB 0
x_5_BE_NA 0
x_5_BE_SQ 0
x_5_SB_NA 0
x_5_SB_SQ 0
x_5_NA_SQ 0
x_6_MJ_BO 0
x_6_MJ_CL 0
x_6_MJ_BE 0
x_6_MJ_SB 0
x_6_MJ_NA 0
x_6_MJ_SQ 0
x_6_BO_CL 1
x_6_BO_BE 1
x_6_BO_SB 0
x_6_BO_NA 0
x_6_BO_SQ 0
x_6_CL_BE 1
x_6_CL_SB 0
x_6_CL_NA 0
x_6_CL_SQ 0
x_6_BE_SB 0
x_6_BE_NA 0
x_6_BE_SQ 0
x_6_SB_NA 0
x_6_SB_SQ 0
x_6_NA_SQ 0
x_7_MJ_BO 0
x_7_MJ_CL 0
x_7_MJ_BE 0
x_7_MJ_SB 0
x_7_MJ_NA 0
x_7_MJ_SQ 0
x_7_BO_CL 1
x_7_BO_BE 1
x_7_BO_SB 0
x_7_BO_NA 0
x_7_BO_SQ 0
x_7_CL_BE 1
x_7_CL_SB 0
x_7_CL_NA 0
x_7_CL_SQ 0
x_7_BE_SB 0
x_7_BE_NA 0
x_7_BE_SQ 0
x_7_SB_NA 0
x_7_SB_SQ 1
x_7_NA_SQ 1
x_8_MJ_BO 0
x_8_MJ_CL 1
x_8_MJ_BE 1
x_8_MJ_SB 0
x_8_MJ_NA 0
x_8_MJ_SQ 0
x_8_BO_CL 1
x_8_BO_BE 1
x_8_BO_SB 0
x_8_BO_NA 0
x_8_BO_SQ 0
x_8_CL_BE 1
x_8_CL_SB 0
x_8_CL_NA 0
x_8_CL_SQ 0
x_8_BE_SB 0
x_8_BE_NA 0
x_8_BE_SQ 0
x_8_SB_NA 0
x_8_SB_SQ 0
x_8_NA_SQ 0
x_9_BO_CL 1
x_9_BO_BE 1
x_9_BO_SB 0
x_9_BO_NA 0
x_9_BO_SQ 0
x_9_CL_BE 0
x_9_CL_SB 0
x_9_CL_NA 0
x_9_CL_SQ 0
x_9_BE_SB 0
x_9_BE_NA 0
x_9_BE_SQ 0
x_9_SB_NA 0
x_9_SB_SQ 0
x_9_NA_SQ 0
x_10_BO_CL 1
x_10_BO_BE 1
x_10_BO_SB 0
x_10_BO_NA 0
x_10_BO_SQ 0
x_10_CL_BE 0
x_10_CL_SB 0
x_10_CL_NA 0
x_10_CL_SQ 0
x_10_BE_SB 0
x_10_BE_NA 0
x_10_BE_SQ 0
x_10_SB_NA 0
x_10_SB_SQ 0
x_10_NA_SQ 0
x_11_BO_CL 1
x_11_BO_BE 1
x_11_BO_SB 0
x_11_BO_NA 0
x_11_BO_SQ 0
x_10_BO_DO 0
x_11_BO_DO 0
x_11_CL_BE 0
x_11_CL_SB 0
x_11_CL_NA 0
x_11_CL_SQ 0
x_10_CL_DO 0
x_11_CL_DO 0
x_11_BE_SB 0
x_11_BE_NA 0
x_11_BE_SQ 0
x_10_BE_DO 0
x_11_BE_DO 0
x_11_SB_NA 0
x_11_SB_SQ 0
x_10_SB_DO 0
x_11_SB_DO 0
x_11_NA_SQ 0
x_10_NA_DO 0
x_11_NA_DO 0
x_10_SQ_DO 1
x_11_SQ_DO 1
x_12_BO_CL 1
x_12_BO_BE 1
x_12_BO_NA 0
x_12_BO_SQ 0
x_12_BO_DO 0
x_12_CL_BE 0
x_12_CL_NA 0
x_12_CL_SQ 0
x_12_CL_DO 0
x_12_BE_NA 0
x_12_BE_SQ 0
x_12_BE_DO 0
x_12_NA_SQ 0
x_12_NA_DO 0
x_12_SQ_DO 0
x_13_BO_CL 1
x_13_BO_BE 1
x_13_BO_NA 0
x_13_BO_SQ 0
x_13_BO_DO 0
x_13_CL_BE 0
x_13_CL_NA 0
x_13_CL_SQ 0
x_13_CL_DO 0
x_13_BE_NA 0
x_13_BE_SQ 0
x_13_BE_DO 0
x_13_NA_SQ 0
x_13_NA_DO 0
x_13_SQ_DO 0
x_14_BO_CL 1
x_14_BO_BE 1
x_14_BO_NA 0
x_14_BO_SQ 0
x_14_BO_DO 0
x_14_CL_BE 0
x_14_CL_NA 0
x_14_CL_SQ 0
x_14_CL_DO 0
x_14_BE_NA 0
x_14_BE_SQ 0
x_14_BE_DO 0
x_14_NA_SQ 0
x_14_NA_DO 0
x_14_SQ_DO 0
x_15_BO_CL 1
x_15_BO_BE 1
x_15_BO_NA 0
x_15_BO_SQ 0
x_15_BO_DO 0
x_15_CL_BE 0
x_15_CL_NA 0
x_15_CL_SQ 0
x_15_CL_DO 0
x_15_BE_NA 0
x_15_BE_SQ 0
x_15_BE_DO 0
x_15_NA_SQ 0
x_15_NA_DO 0
x_15_SQ_DO 0
x_16_BO_CL 1
x_16_BO_BE 1
x_16_BO_NA 0
x_16_BO_SQ 0
x_16_BO_DO 0
x_16_CL_BE 0
x_16_CL_NA 0
x_16_CL_SQ 0
x_16_CL_DO 0
x_16_BE_NA 0
x_16_BE_SQ 0
x_16_BE_DO 0
x_16_NA_SQ 0
x_16_NA_DO 0
x_16_SQ_DO 0
x_17_BO_CL 1
x_17_BO_BE 1
x_17_BO_NA 0
x_17_BO_SQ 0
x_17_BO_DO 0
x_17_CL_BE 0
x_17_CL_NA 0
x_17_CL_SQ 0
x_17_CL_DO 0
x_17_BE_NA 0
x_17_BE_SQ 0
x_17_BE_DO 0
x_17_NA_SQ 1
x_17_NA_DO 0
x_17_SQ_DO 0
x_18_BO_CL 1
x_18_BO_BE 1
x_18_BO_NA 0
x_18_BO_SQ 1
x_18_BO_DO 0
x_17_BO_HE 0
x_18_BO_HE 0
x_18_CL_BE 0
x_18_CL_NA 0
x_18_CL_SQ 0
x_18_CL_DO 0
x_17_CL_HE 0
x_18_CL_HE 0
x_18_BE_NA 0
x_18_BE_SQ 1
x_18_BE_DO 0
x_17_BE_HE 0
x_18_BE_HE 0
x_18_NA_SQ 1
x_18_NA_DO 0
x_17_NA_HE 0
x_18_NA_HE 0
x_18_SQ_DO 0
x_17_SQ_HE 0
x_18_SQ_HE 0
x_17_DO_HE 1
x_18_DO_HE 1
x_19_BO_CL 1
x_19_BO_BE 1
x_19_BO_NA 0
x_19_BO_SQ 1
x_19_BO_DO 0
x_19_BO_HE 0
x_19_CL_BE 0
x_19_CL_NA 0
x_19_CL_SQ 0
x_19_CL_DO 0
x_19_CL_HE 0
x_19_BE_NA 0
x_19_BE_SQ 1
x_19_BE_DO 0
x_19_BE_HE 0
x_19_NA_SQ 1
x_19_NA_DO 0
x_19_NA_HE 0
x_19_SQ_DO 0
x_19_SQ_HE 0
x_19_DO_HE 1
x_20_BO_CL 1
x_20_BO_BE 1
x_20_BO_NA 0
x_20_BO_SQ 1
x_20_BO_DO 0
x_19_BO_SP 0
x_20_BO_SP 0
x_20_CL_BE 0
x_20_CL_NA 0
x_20_CL_SQ 0
x_20_CL_DO 0
x_19_CL_SP 0
x_20_CL_SP 0
x_20_BE_NA 0
x_20_BE_SQ 1
x_20_BE_DO 0
x_19_BE_SP 0
x_20_BE_SP 0
x_20_NA_SQ 1
x_20_NA_DO 0
x_19_NA_SP 0
x_20_NA_SP 0
x_20_SQ_DO 0
x_19_SQ_SP 0
x_20_SQ_SP 0
x_19_DO_SP 0
x_20_DO_SP 0
x_21_BO_CL 1
x_21_BO_BE 1
x_21_BO_NA 0
x_21_BO_SQ 1
x_21_BO_DO 0
x_21_BO_SP 0
x_21_CL_BE 0
x_21_CL_NA 0
x_21_CL_SQ 0
x_21_CL_DO 0
x_21_CL_SP 0
x_21_BE_NA 0
x_21_BE_SQ 1
x_21_BE_DO 0
x_21_BE_SP 0
x_21_NA_SQ 1
x_21_NA_DO 0
x_21_NA_SP 0
x_21_SQ_DO 0
x_21_SQ_SP 0
x_21_DO_SP 0
x_22_BO_CL 1
x_22_BO_BE 1
x_22_BO_NA 0
x_22_BO_SQ 1
x_22_BO_DO 0
x_22_BO_SP 0
x_22_CL_BE 0
x_22_CL_NA 0
x_22_CL_SQ 0
x_22_CL_DO 0
x_22_CL_SP 0
x_22_BE_NA 0
x_22_BE_SQ 0
x_22_BE_DO 0
x_22_BE_SP 0
x_22_NA_SQ 1
x_22_NA_DO 0
x_22_NA_SP 0
x_22_SQ_DO 0
x_22_SQ_SP 0
x_22_DO_SP 0
x_23_BO_CL 1
x_23_BO_BE 1
x_23_BO_NA 0
x_23_BO_SQ 1
x_23_BO_SP 0
x_22_BO_FR 0
x_23_BO_FR 0
x_23_CL_BE 0
x_23_CL_NA 0
x_23_CL_SQ 0
x_23_CL_SP 0
x_22_CL_FR 0
x_23_CL_FR 0
x_23_BE_NA 0
x_23_BE_SQ 0
x_23_BE_SP 0
x_22_BE_FR 0
x_23_BE_FR 0
x_23_NA_SQ 1
x_23_NA_SP 0
x_22_NA_FR 0
x_23_NA_FR 0
x_23_SQ_SP 0
x_22_SQ_FR 0
x_23_SQ_FR 0
x_22_SP_FR 1
x_23_SP_FR 1
x_24_BO_CL 1
x_24_BO_BE 1
x_24_BO_NA 0
x_24_BO_SQ 1
x_24_BO_SP 0
x_24_BO_FR 0
x_24_CL_BE 0
x_24_CL_NA 0
x_24_CL_SQ 0
x_24_CL_SP 0
x_24_CL_FR 0
x_24_BE_NA 0
x_24_BE_SQ 0
x_24_BE_SP 0
x_24_BE_FR 0
x_24_NA_SQ 1
x_24_NA_SP 0
x_24_NA_FR 0
x_24_SQ_SP 0
x_24_SQ_FR 0
x_24_SP_FR 0
x_25_BO_CL 1
x_25_BO_BE 0
x_25_BO_NA 0
x_25_BO_SQ 0
x_25_BO_SP 0
x_25_BO_FR 0
x_25_CL_BE 0
x_25_CL_NA 0
x_25_CL_SQ 0
x_25_CL_SP 0
x_25_CL_FR 0
x_25_BE_NA 0
x_25_BE_SQ 0
x_25_BE_SP 0
x_25_BE_FR 0
x_25_NA_SQ 0
x_25_NA_SP 0
x_25_NA_FR 0
x_25_SQ_SP 0
x_25_SQ_FR 0
x_25_SP_FR 0
x_26_BO_CL 1
x_26_BO_BE 0
x_26_BO_NA 0
x_26_BO_SQ 0
x_26_BO_SP 0
x_26_BO_FR 0
x_26_CL_BE 0
x_26_CL_NA 0
x_26_CL_SQ 0
x_26_CL_SP 0
x_26_CL_FR 0
x_26_BE_NA 0
x_26_BE_SQ 0
x_26_BE_SP 0
x_26_BE_FR 0
x_26_NA_SQ 0
x_26_NA_SP 0
x_26_NA_FR 0
x_26_SQ_SP 0
x_26_SQ_FR 0
x_26_SP_FR 0
x_27_BO_CL 1
x_27_BO_BE 0
x_27_BO_NA 0
x_27_BO_SQ 0
x_27_BO_SP 0
x_27_BO_FR 0
x_27_CL_BE 0
x_27_CL_NA 0
x_27_CL_SQ 0
x_27_CL_SP 0
x_27_CL_FR 0
x_27_BE_NA 0
x_27_BE_SQ 0
x_27_BE_SP 0
x_27_BE_FR 0
x_27_NA_SQ 0
x_27_NA_SP 0
x_27_NA_FR 0
x_27_SQ_SP 0
x_27_SQ_FR 0
x_27_SP_FR 0
x_28_BO_CL 1
x_28_BO_BE 0
x_28_BO_NA 0
x_28_BO_SQ 0
x_28_BO_SP 0
x_28_BO_FR 0
x_28_CL_BE 0
x_28_CL_NA 0
x_28_CL_SQ 0
x_28_CL_SP 0
x_28_CL_FR 0
x_28_BE_NA 0
x_28_BE_SQ 0
x_28_BE_SP 0
x_28_BE_FR 0
x_28_NA_SQ 0
x_28_NA_SP 0
x_28_NA_FR 0
x_28_SQ_SP 0
x_28_SQ_FR 0
x_28_SP_FR 0
x_29_CL_BE 0
x_29_CL_NA 0
x_29_CL_SQ 0
x_29_CL_SP 0
x_29_CL_FR 0
x_29_BE_NA 0
x_29_BE_SQ 0
x_29_BE_SP 0
x_29_BE_FR 0
x_29_NA_SQ 0
x_29_NA_SP 0
x_29_NA_FR 0
x_29_SQ_SP 0
x_29_SQ_FR 0
x_29_SP_FR 0
x_30_CL_BE 0
x_30_CL_NA 0
x_30_CL_SQ 0
x_30_CL_SP 0
x_30_CL_FR 0
x_30_BE_NA 0
x_30_BE_SQ 0
x_30_BE_SP 0
x_30_BE_FR 0
x_30_NA_SQ 0
x_30_NA_SP 0
x_30_NA_FR 0
x_30_SQ_SP 0
x_30_SQ_FR 0
x_30_SP_FR 0
x_31_CL_BE 0
x_31_CL_NA 0
x_31_CL_SQ 0
x_31_CL_SP 0
x_31_CL_FR 0
x_31_BE_NA 0
x_31_BE_SQ 0
x_31_BE_SP 0
x_31_BE_FR 0
x_31_NA_SQ 0
x_31_NA_SP 0
x_31_NA_FR 0
x_31_SQ_SP 0
x_31_SQ_FR 0
x_31_SP_FR 0
x_32_CL_BE 0
x_32_CL_NA 0
x_32_CL_SQ 0
x_32_CL_FR 0
x_32_BE_NA 0
x_32_BE_SQ 0
x_32_BE_FR 0
x_32_NA_SQ 0
x_32_NA_FR 0
x_32_SQ_FR 0
x_33_CL_BE 0
x_33_CL_NA 0
x_33_CL_SQ 0
x_33_CL_FR 0
x_33_BE_NA 0
x_33_BE_SQ 0
x_33_BE_FR 0
x_33_NA_SQ 0
x_33_NA_FR 0
x_33_SQ_FR 0
x_34_BE_NA 0
x_34_BE_SQ 0
x_34_BE_FR 0
x_34_NA_SQ 0
x_34_NA_FR 0
x_34_SQ_FR 0
x_35_BE_NA 0
x_35_BE_SQ 0
x_35_BE_FR 0
x_35_NA_SQ 0
x_35_NA_FR 0
x_35_SQ_FR 0
x_36_BE_NA 0
x_36_BE_SQ 0
x_36_BE_FR 0
x_36_NA_SQ 0
x_36_NA_FR 0
x_36_SQ_FR 0
x_37_BE_NA 0
x_37_BE_SQ 0
x_37_BE_FR 0
x_36_BE_PI 0
x_37_BE_PI 0
x_37_NA_SQ 0
x_37_NA_FR 0
x_36_NA_PI 1
x_37_NA_PI 1
x_37_SQ_FR 0
x_36_SQ_PI 1
x_37_SQ_PI 1
x_36_FR_PI 1
x_37_FR_PI 1
x_38_BE_NA 0
x_38_BE_SQ 0
x_38_BE_PI 0
x_38_NA_SQ 0
x_38_NA_PI 1
x_38_SQ_PI 1
b_0 12
x_0_MJ_MO 0
x_1_MJ_OM 0
b_1 12
delta_0_0 1
b_2 13
delta_1_0 1
x_1_BO_MJ 1
x_1_BO_OM 1
x_2_BO_MJ 1
delta_1_3 1
x_1_CL_MJ 1
x_1_CL_OM 1
x_1_CL_BO 0
x_2_CL_MJ 1
x_2_CL_BO 0
delta_1_4 1
x_1_BE_MJ 1
x_1_BE_OM 0
x_1_BE_BO 0
x_1_BE_CL 0
x_2_BE_MJ 0
x_2_BE_BO 0
x_2_BE_CL 0
delta_1_5 5.5882352941176472e-01
x_1_SB_MJ 1
x_1_SB_OM 1
x_1_SB_BO 1
x_1_SB_CL 1
x_1_SB_BE 1
x_2_SB_MJ 1
x_2_SB_BO 1
x_2_SB_CL 1
x_2_SB_BE 1
delta_1_6 1
x_1_NA_MJ 1
x_1_NA_OM 1
x_1_NA_BO 1
x_1_NA_CL 1
x_1_NA_BE 1
x_1_NA_SB 1
x_2_NA_MJ 1
x_2_NA_BO 1
x_2_NA_CL 1
x_2_NA_BE 1
x_2_NA_SB 1
delta_1_7 1
x_1_SQ_MJ 1
x_1_SQ_OM 1
x_1_SQ_BO 1
x_1_SQ_CL 1
x_1_SQ_BE 1
x_1_SQ_SB 1
x_1_SQ_NA 1
x_2_SQ_MJ 1
x_2_SQ_BO 1
x_2_SQ_CL 1
x_2_SQ_BE 1
x_2_SQ_SB 1
x_2_SQ_NA 1
delta_1_8 1
b_3 13
delta_2_0 1
x_3_BO_MJ 1
delta_2_3 1
x_3_CL_MJ 1
x_3_CL_BO 0
delta_2_4 1
x_3_BE_MJ 0
x_3_BE_BO 0
x_3_BE_CL 0
delta_2_5 1
x_3_SB_MJ 1
x_3_SB_BO 1
x_3_SB_CL 1
x_3_SB_BE 1
delta_2_6 1
x_3_NA_MJ 1
x_3_NA_BO 1
x_3_NA_CL 1
x_3_NA_BE 1
x_3_NA_SB 1
delta_2_7 1
x_3_SQ_MJ 1
x_3_SQ_BO 1
x_3_SQ_CL 1
x_3_SQ_BE 1
x_3_SQ_SB 1
x_3_SQ_NA 1
delta_2_8 1
b_4 13
delta_3_0 9.4117647058823528e-01
x_4_BO_MJ 1
delta_3_3 1
x_4_CL_MJ 1
x_4_CL_BO 0
delta_3_4 1
x_4_BE_MJ 1
x_4_BE_BO 0
x_4_BE_CL 0
delta_3_5 1
x_4_SB_MJ 1
x_4_SB_BO 1
x_4_SB_CL 1
x_4_SB_BE 1
delta_3_6 1
x_4_NA_MJ 1
x_4_NA_BO 1
x_4_NA_CL 1
x_4_NA_BE 1
x_4_NA_SB 1
delta_3_7 1
x_4_SQ_MJ 1
x_4_SQ_BO 1
x_4_SQ_CL 1
x_4_SQ_BE 1
x_4_SQ_SB 1
x_4_SQ_NA 1
delta_3_8 1
b_5 13
delta_4_0 1
x_5_BO_MJ 1
delta_4_3 1
x_5_CL_MJ 1
x_5_CL_BO 0
delta_4_4 1
x_5_BE_MJ 1
x_5_BE_BO 0
x_5_BE_CL 0
delta_4_5 1
x_5_SB_MJ 1
x_5_SB_BO 1
x_5_SB_CL 1
x_5_SB_BE 1
delta_4_6 1
x_5_NA_MJ 1
x_5_NA_BO 1
x_5_NA_CL 1
x_5_NA_BE 1
x_5_NA_SB 1
delta_4_7 1
x_5_SQ_MJ 1
x_5_SQ_BO 1
x_5_SQ_CL 1
x_5_SQ_BE 1
x_5_SQ_SB 1
x_5_SQ_NA 1
delta_4_8 1
b_6 13
delta_5_0 1
x_6_BO_MJ 1
delta_5_3 1
x_6_CL_MJ 1
x_6_CL_BO 0
delta_5_4 1
x_6_BE_MJ 1
x_6_BE_BO 0
x_6_BE_CL 0
delta_5_5 1
x_6_SB_MJ 1
x_6_SB_BO 1
x_6_SB_CL 1
x_6_SB_BE 1
delta_5_6 1
x_6_NA_MJ 1
x_6_NA_BO 1
x_6_NA_CL 1
x_6_NA_BE 1
x_6_NA_SB 1
delta_5_7 1
x_6_SQ_MJ 1
x_6_SQ_BO 1
x_6_SQ_CL 1
x_6_SQ_BE 1
x_6_SQ_SB 1
x_6_SQ_NA 1
delta_5_8 1
b_7 13
delta_6_0 1
x_7_BO_MJ 1
delta_6_3 1
x_7_CL_MJ 1
x_7_CL_BO 0
delta_6_4 1
x_7_BE_MJ 1
x_7_BE_BO 0
x_7_BE_CL 0
delta_6_5 1
x_7_SB_MJ 1
x_7_SB_BO 1
x_7_SB_CL 1
x_7_SB_BE 1
delta_6_6 1
x_7_NA_MJ 1
x_7_NA_BO 1
x_7_NA_CL 1
x_7_NA_BE 1
x_7_NA_SB 1
delta_6_7 1
x_7_SQ_MJ 1
x_7_SQ_BO 1
x_7_SQ_CL 1
x_7_SQ_BE 1
x_7_SQ_SB 0
x_7_SQ_NA 0
delta_6_8 8.8235294117647056e-01
b_8 14
delta_7_0 1
x_8_BO_MJ 1
delta_7_3 1
x_8_CL_MJ 0
x_8_CL_BO 0
delta_7_4 1
x_8_BE_MJ 0
x_8_BE_BO 0
x_8_BE_CL 0
delta_7_5 1
x_8_SB_MJ 1
x_8_SB_BO 1
x_8_SB_CL 1
x_8_SB_BE 1
delta_7_6 1
x_8_NA_MJ 1
x_8_NA_BO 1
x_8_NA_CL 1
x_8_NA_BE 1
x_8_NA_SB 1
delta_7_7 1
x_8_SQ_MJ 1
x_8_SQ_BO 1
x_8_SQ_CL 1
x_8_SQ_BE 1
x_8_SQ_SB 1
x_8_SQ_NA 1
delta_7_8 1
b_9 15
delta_8_3 1
x_9_CL_BO 0
delta_8_4 1
x_9_BE_BO 0
x_9_BE_CL 1
delta_8_5 1
x_9_SB_BO 1
x_9_SB_CL 1
x_9_SB_BE 1
delta_8_6 1
x_9_NA_BO 1
x_9_NA_CL 1
x_9_NA_BE 1
x_9_NA_SB 1
delta_8_7 1
x_9_SQ_BO 1
x_9_SQ_CL 1
x_9_SQ_BE 1
x_9_SQ_SB 1
x_9_SQ_NA 1
delta_8_8 1
b_10 15
delta_9_3 1
x_10_CL_BO 0
delta_9_4 1
x_10_BE_BO 0
x_10_BE_CL 1
delta_9_5 1
x_10_SB_BO 1
x_10_SB_CL 1
x_10_SB_BE 1
delta_9_6 1
x_10_NA_BO 1
x_10_NA_CL 1
x_10_NA_BE 1
x_10_NA_SB 1
delta_9_7 1
x_10_SQ_BO 1
x_10_SQ_CL 1
x_10_SQ_BE 1
x_10_SQ_SB 1
x_10_SQ_NA 1
delta_9_8 1
b_11 15
delta_10_3 1
x_11_CL_BO 0
delta_10_4 1
x_11_BE_BO 0
x_11_BE_CL 1
delta_10_5 1
x_11_SB_BO 1
x_11_SB_CL 1
x_11_SB_BE 1
delta_10_6 1
x_11_NA_BO 1
x_11_NA_CL 1
x_11_NA_BE 1
x_11_NA_SB 1
delta_10_7 1
x_11_SQ_BO 1
x_11_SQ_CL 1
x_11_SQ_BE 1
x_11_SQ_SB 1
x_11_SQ_NA 1
delta_10_8 1
x_10_DO_BO 1
x_10_DO_CL 1
x_10_DO_BE 1
x_10_DO_SB 1
x_10_DO_NA 1
x_10_DO_SQ 0
x_11_DO_BO 1
x_11_DO_CL 1
x_11_DO_BE 1
x_11_DO_SB 1
x_11_DO_NA 1
x_11_DO_SQ 0
delta_10_9 1
b_12 15
delta_11_3 1
x_12_CL_BO 0
delta_11_4 1
x_12_BE_BO 0
x_12_BE_CL 1
delta_11_5 1
x_12_NA_BO 1
x_12_NA_CL 1
x_12_NA_BE 1
delta_11_7 9.4117647058823528e-01
x_12_SQ_BO 1
x_12_SQ_CL 1
x_12_SQ_BE 1
x_12_SQ_NA 1
delta_11_8 8.8235294117647056e-01
x_12_DO_BO 1
x_12_DO_CL 1
x_12_DO_BE 1
x_12_DO_NA 1
x_12_DO_SQ 1
delta_11_9 1
b_13 15
delta_12_3 1
x_13_CL_BO 0
delta_12_4 1
x_13_BE_BO 0
x_13_BE_CL 1
delta_12_5 1
x_13_NA_BO 1
x_13_NA_CL 1
x_13_NA_BE 1
delta_12_7 1
x_13_SQ_BO 1
x_13_SQ_CL 1
x_13_SQ_BE 1
x_13_SQ_NA 1
delta_12_8 1
x_13_DO_BO 1
x_13_DO_CL 1
x_13_DO_BE 1
x_13_DO_NA 1
x_13_DO_SQ 1
delta_12_9 1
b_14 15
delta_13_3 1
x_14_CL_BO 0
delta_13_4 1
x_14_BE_BO 0
x_14_BE_CL 1
delta_13_5 1
x_14_NA_BO 1
x_14_NA_CL 1
x_14_NA_BE 1
delta_13_7 1
x_14_SQ_BO 1
x_14_SQ_CL 1
x_14_SQ_BE 1
x_14_SQ_NA 1
delta_13_8 1
x_14_DO_BO 1
x_14_DO_CL 1
x_14_DO_BE 1
x_14_DO_NA 1
x_14_DO_SQ 1
delta_13_9 1
b_15 15
delta_14_3 1
x_15_CL_BO 0
delta_14_4 1
x_15_BE_BO 0
x_15_BE_CL 1
delta_14_5 1
x_15_NA_BO 1
x_15_NA_CL 1
x_15_NA_BE 1
delta_14_7 1
x_15_SQ_BO 1
x_15_SQ_CL 1
x_15_SQ_BE 1
x_15_SQ_NA 1
delta_14_8 1
x_15_DO_BO 1
x_15_DO_CL 1
x_15_DO_BE 1
x_15_DO_NA 1
x_15_DO_SQ 1
delta_14_9 1
b_16 15
delta_15_3 1
x_16_CL_BO 0
delta_15_4 1
x_16_BE_BO 0
x_16_BE_CL 1
delta_15_5 1
x_16_NA_BO 1
x_16_NA_CL 1
x_16_NA_BE 1
delta_15_7 1
x_16_SQ_BO 1
x_16_SQ_CL 1
x_16_SQ_BE 1
x_16_SQ_NA 1
delta_15_8 1
x_16_DO_BO 1
x_16_DO_CL 1
x_16_DO_BE 1
x_16_DO_NA 1
x_16_DO_SQ 1
delta_15_9 1
b_17 15
delta_16_3 1
x_17_CL_BO 0
delta_16_4 1
x_17_BE_BO 0
x_17_BE_CL 1
delta_16_5 1
x_17_NA_BO 1
x_17_NA_CL 1
x_17_NA_BE 1
delta_16_7 1
x_17_SQ_BO 1
x_17_SQ_CL 1
x_17_SQ_BE 1
x_17_SQ_NA 0
delta_16_8 9.1176470588235292e-01
x_17_DO_BO 1
x_17_DO_CL 1
x_17_DO_BE 1
x_17_DO_NA 1
x_17_DO_SQ 1
delta_16_9 1
b_18 15
delta_17_3 1
x_18_CL_BO 0
delta_17_4 1
x_18_BE_BO 0
x_18_BE_CL 1
delta_17_5 1
x_18_NA_BO 1
x_18_NA_CL 1
x_18_NA_BE 1
delta_17_7 1
x_18_SQ_BO 0
x_18_SQ_CL 1
x_18_SQ_BE 0
x_18_SQ_NA 0
delta_17_8 8.8235294117647056e-01
x_18_DO_BO 1
x_18_DO_CL 1
x_18_DO_BE 1
x_18_DO_NA 1
x_18_DO_SQ 1
delta_17_9 1
x_17_HE_BO 1
x_17_HE_CL 1
x_17_HE_BE 1
x_17_HE_NA 1
x_17_HE_SQ 1
x_17_HE_DO 0
x_18_HE_BO 1
x_18_HE_CL 1
x_18_HE_BE 1
x_18_HE_NA 1
x_18_HE_SQ 1
x_18_HE_DO 0
delta_17_10 1
b_19 15
delta_18_3 1
x_19_CL_BO 0
delta_18_4 1
x_19_BE_BO 0
x_19_BE_CL 1
delta_18_5 1
x_19_NA_BO 1
x_19_NA_CL 1
x_19_NA_BE 1
delta_18_7 1
x_19_SQ_BO 0
x_19_SQ_CL 1
x_19_SQ_BE 0
x_19_SQ_NA 0
delta_18_8 1
x_19_DO_BO 1
x_19_DO_CL 1
x_19_DO_BE 1
x_19_DO_NA 1
x_19_DO_SQ 1
delta_18_9 1
x_19_HE_BO 1
x_19_HE_CL 1
x_19_HE_BE 1
x_19_HE_NA 1
x_19_HE_SQ 1
x_19_HE_DO 0
x_19_HE_SP 0
delta_18_10 1
x_20_BO_MU 1
b_20 14
delta_19_3 1
x_20_CL_BO 0
x_20_CL_MU 1
delta_19_4 1
x_20_BE_BO 0
x_20_BE_CL 1
x_20_BE_MU 1
delta_19_5 1
x_20_NA_BO 1
x_20_NA_CL 1
x_20_NA_BE 1
x_20_NA_MU 1
delta_19_7 1
x_20_SQ_BO 0
x_20_SQ_CL 1
x_20_SQ_BE 0
x_20_SQ_NA 0
x_20_SQ_MU 1
delta_19_8 1
x_20_DO_BO 1
x_20_DO_CL 1
x_20_DO_BE 1
x_20_DO_NA 1
x_20_DO_SQ 1
x_20_DO_MU 1
delta_19_9 9.4117647058823528e-01
x_19_SP_BO 1
x_19_SP_CL 1
x_19_SP_BE 1
x_19_SP_NA 1
x_19_SP_SQ 1
x_19_SP_DO 1
x_19_SP_HE 1
x_20_SP_BO 1
x_20_SP_CL 1
x_20_SP_BE 1
x_20_SP_NA 1
x_20_SP_SQ 1
x_20_SP_DO 1
x_20_SP_MU 1
delta_19_11 9.4117647058823528e-01
b_21 15
delta_20_3 1
x_21_CL_BO 0
delta_20_4 1
x_21_BE_BO 0
x_21_BE_CL 1
delta_20_5 1
x_21_NA_BO 1
x_21_NA_CL 1
x_21_NA_BE 1
delta_20_7 1
x_21_SQ_BO 0
x_21_SQ_CL 1
x_21_SQ_BE 0
x_21_SQ_NA 0
delta_20_8 1
x_21_DO_BO 1
x_21_DO_CL 1
x_21_DO_BE 1
x_21_DO_NA 1
x_21_DO_SQ 1
delta_20_9 1
x_21_SP_BO 1
x_21_SP_CL 1
x_21_SP_BE 1
x_21_SP_NA 1
x_21_SP_SQ 1
x_21_SP_DO 1
delta_20_11 1
b_22 15
delta_21_3 1
x_22_CL_BO 0
delta_21_4 1
x_22_BE_BO 0
x_22_BE_CL 1
delta_21_5 9.4117647058823528e-01
x_22_NA_BO 1
x_22_NA_CL 1
x_22_NA_BE 1
delta_21_7 1
x_22_SQ_BO 0
x_22_SQ_CL 1
x_22_SQ_BE 1
x_22_SQ_NA 0
delta_21_8 1
x_22_DO_BO 1
x_22_DO_CL 1
x_22_DO_BE 1
x_22_DO_NA 1
x_22_DO_SQ 1
x_22_DO_FR 1
delta_21_9 1
x_22_SP_BO 1
x_22_SP_CL 1
x_22_SP_BE 1
x_22_SP_NA 1
x_22_SP_SQ 1
x_22_SP_DO 1
delta_21_11 1
b_23 15
delta_22_3 1
x_23_CL_BO 0
delta_22_4 1
x_23_BE_BO 0
x_23_BE_CL 1
delta_22_5 1
x_23_NA_BO 1
x_23_NA_CL 1
x_23_NA_BE 1
delta_22_7 1
x_23_SQ_BO 0
x_23_SQ_CL 1
x_23_SQ_BE 1
x_23_SQ_NA 0
delta_22_8 1
x_23_SP_BO 1
x_23_SP_CL 1
x_23_SP_BE 1
x_23_SP_NA 1
x_23_SP_SQ 1
delta_22_11 9.4117647058823528e-01
x_22_FR_BO 1
x_22_FR_CL 1
x_22_FR_BE 1
x_22_FR_NA 1
x_22_FR_SQ 1
x_22_FR_DO 0
x_22_FR_SP 0
x_23_FR_BO 1
x_23_FR_CL 1
x_23_FR_BE 1
x_23_FR_NA 1
x_23_FR_SQ 1
x_23_FR_SP 0
delta_22_13 1
b_24 15
delta_23_3 1
x_24_CL_BO 0
delta_23_4 1
x_24_BE_BO 0
x_24_BE_CL 1
delta_23_5 1
x_24_NA_BO 1
x_24_NA_CL 1
x_24_NA_BE 1
delta_23_7 1
x_24_SQ_BO 0
x_24_SQ_CL 1
x_24_SQ_BE 1
x_24_SQ_NA 0
delta_23_8 1
x_24_SP_BO 1
x_24_SP_CL 1
x_24_SP_BE 1
x_24_SP_NA 1
x_24_SP_SQ 1
delta_23_11 9.4117647058823528e-01
x_24_FR_BO 1
x_24_FR_CL 1
x_24_FR_BE 1
x_24_FR_NA 1
x_24_FR_SQ 1
x_24_FR_SP 1
delta_23_13 1
b_25 15
delta_24_3 8.8235294117647056e-01
x_25_CL_BO 0
delta_24_4 1
x_25_BE_BO 1
x_25_BE_CL 1
delta_24_5 1
x_25_NA_BO 1
x_25_NA_CL 1
x_25_NA_BE 1
delta_24_7 9.4117647058823528e-01
x_25_SQ_BO 1
x_25_SQ_CL 1
x_25_SQ_BE 1
x_25_SQ_NA 1
delta_24_8 1
x_25_SP_BO 1
x_25_SP_CL 1
x_25_SP_BE 1
x_25_SP_NA 1
x_25_SP_SQ 1
delta_24_11 1
x_25_FR_BO 1
x_25_FR_CL 1
x_25_FR_BE 1
x_25_FR_NA 1
x_25_FR_SQ 1
x_25_FR_SP 1
delta_24_13 1
b_26 15
delta_25_3 1
x_26_CL_BO 0
delta_25_4 1
x_26_BE_BO 1
x_26_BE_CL 1
delta_25_5 1
x_26_NA_BO 1
x_26_NA_CL 1
x_26_NA_BE 1
delta_25_7 1
x_26_SQ_BO 1
x_26_SQ_CL 1
x_26_SQ_BE 1
x_26_SQ_NA 1
delta_25_8 1
x_26_SP_BO 1
x_26_SP_CL 1
x_26_SP_BE 1
x_26_SP_NA 1
x_26_SP_SQ 1
delta_25_11 1
x_26_FR_BO 1
x_26_FR_CL 1
x_26_FR_BE 1
x_26_FR_NA 1
x_26_FR_SQ 1
x_26_FR_SP 1
delta_25_13 1
b_27 15
delta_26_3 1
x_27_CL_BO 0
delta_26_4 1
x_27_BE_BO 1
x_27_BE_CL 1
delta_26_5 1
x_27_NA_BO 1
x_27_NA_CL 1
x_27_NA_BE 1
delta_26_7 1
x_27_SQ_BO 1
x_27_SQ_CL 1
x_27_SQ_BE 1
x_27_SQ_NA 1
delta_26_8 1
x_27_SP_BO 1
x_27_SP_CL 1
x_27_SP_BE 1
x_27_SP_NA 1
x_27_SP_SQ 1
delta_26_11 1
x_27_FR_BO 1
x_27_FR_CL 1
x_27_FR_BE 1
x_27_FR_NA 1
x_27_FR_SQ 1
x_27_FR_SP 1
delta_26_13 1
b_28 15
delta_27_3 1
x_28_CL_BO 0
delta_27_4 1
x_28_BE_BO 1
x_28_BE_CL 1
delta_27_5 1
x_28_NA_BO 1
x_28_NA_CL 1
x_28_NA_BE 1
delta_27_7 1
x_28_SQ_BO 1
x_28_SQ_CL 1
x_28_SQ_BE 1
x_28_SQ_NA 1
delta_27_8 1
x_28_SP_BO 1
x_28_SP_CL 1
x_28_SP_BE 1
x_28_SP_NA 1
x_28_SP_SQ 1
delta_27_11 1
x_28_FR_BO 1
x_28_FR_CL 1
x_28_FR_BE 1
x_28_FR_NA 1
x_28_FR_SQ 1
x_28_FR_SP 1
delta_27_13 1
b_29 16
delta_28_4 1
x_29_BE_CL 1
delta_28_5 1
x_29_NA_CL 1
x_29_NA_BE 1
delta_28_7 1
x_29_SQ_CL 1
x_29_SQ_BE 1
x_29_SQ_NA 1
delta_28_8 1
x_29_SP_CL 1
x_29_SP_BE 1
x_29_SP_NA 1
x_29_SP_SQ 1
delta_28_11 1
x_29_FR_CL 1
x_29_FR_BE 1
x_29_FR_NA 1
x_29_FR_SQ 1
x_29_FR_SP 1
delta_28_13 1
x_30_CL_BR 0
b_30 16
delta_29_4 1
x_30_BE_CL 1
x_30_BE_BR 0
delta_29_5 1
x_30_NA_CL 1
x_30_NA_BE 1
x_30_NA_BR 0
delta_29_7 1
x_30_SQ_CL 1
x_30_SQ_BE 1
x_30_SQ_NA 1
x_30_SQ_BR 0
delta_29_8 1
x_30_SP_CL 1
x_30_SP_BE 1
x_30_SP_NA 1
x_30_SP_SQ 1
x_30_SP_BR 1
delta_29_11 1
x_30_FR_CL 1
x_30_FR_BE 1
x_30_FR_NA 1
x_30_FR_SQ 1
x_30_FR_SP 1
x_30_FR_BR 1
delta_29_13 1
b_31 16
delta_30_4 1
x_31_BE_CL 1
delta_30_5 1
x_31_NA_CL 1
x_31_NA_BE 1
delta_30_7 1
x_31_SQ_CL 1
x_31_SQ_BE 1
x_31_SQ_NA 1
delta_30_8 1
x_31_SP_CL 1
x_31_SP_BE 1
x_31_SP_NA 1
x_31_SP_SQ 1
delta_30_11 9.4117647058823528e-01
x_31_FR_CL 1
x_31_FR_BE 1
x_31_FR_NA 1
x_31_FR_SQ 1
x_31_FR_SP 1
delta_30_13 9.4117647058823528e-01
b_32 16
delta_31_4 1
x_32_BE_CL 1
delta_31_5 1
x_32_NA_CL 1
x_32_NA_BE 1
delta_31_7 1
x_32_SQ_CL 1
x_32_SQ_BE 1
x_32_SQ_NA 1
delta_31_8 1
x_32_FR_CL 1
x_32_FR_BE 1
x_32_FR_NA 1
x_32_FR_SQ 1
delta_31_13 9.4117647058823528e-01
b_33 16
delta_32_4 1
x_33_BE_CL 1
delta_32_5 1
x_33_NA_CL 1
x_33_NA_BE 1
delta_32_7 1
x_33_SQ_CL 1
x_33_SQ_BE 1
x_33_SQ_NA 1
delta_32_8 1
x_33_FR_CL 1
x_33_FR_BE 1
x_33_FR_NA 1
x_33_FR_SQ 1
delta_32_13 1
x_34_BE_YP 0
b_34 17
delta_33_5 1
x_34_NA_BE 1
x_34_NA_YP 0
delta_33_7 1
x_34_SQ_BE 1
x_34_SQ_NA 1
x_34_SQ_YP 0
delta_33_8 1
x_34_FR_BE 1
x_34_FR_NA 1
x_34_FR_SQ 1
x_34_FR_YP 1
delta_33_13 1
b_35 17
delta_34_5 1
x_35_NA_BE 1
delta_34_7 1
x_35_SQ_BE 1
x_35_SQ_NA 1
delta_34_8 1
x_35_FR_SQ 1
x_35_FR_BE 1
x_35_FR_NA 1
delta_34_13 9.4117647058823528e-01
b_36 16
delta_35_5 9.4117647058823528e-01
x_36_NA_BE 1
delta_35_7 1
x_36_SQ_BE 1
x_36_SQ_NA 1
delta_35_8 1
x_36_FR_BE 1
x_36_FR_NA 1
x_36_FR_SQ 1
delta_35_13 1
b_37 16
delta_36_5 1
x_37_NA_BE 1
delta_36_7 1
x_37_SQ_BE 1
x_37_SQ_NA 1
delta_36_8 1
x_37_FR_BE 1
x_37_FR_NA 1
x_37_FR_SQ 1
delta_36_13 1
x_36_PI_BE 1
x_36_PI_NA 0
x_36_PI_SQ 0
x_36_PI_FR 0
x_37_PI_BE 1
x_37_PI_NA 0
x_37_PI_SQ 0
x_37_PI_FR 0
delta_36_16 1
b_38 16
delta_37_5 1
x_38_NA_BE 1
delta_37_7 1
x_38_SQ_BE 1
x_38_SQ_NA 1
delta_37_8 1
x_38_PI_SQ 0
x_38_PI_BE 1
x_38_PI_NA 0
delta_37_16 1
x_0_MO_MJ 1
x_1_OM_MJ 1
x_1_OM_BO 0
x_1_OM_CL 0
x_1_OM_BE 1
x_1_OM_SB 0
x_1_OM_NA 0
x_1_OM_SQ 0
x_20_MU_BO 0
x_20_MU_CL 0
x_20_MU_BE 0
x_20_MU_NA 0
x_20_MU_SQ 0
x_20_MU_DO 0
x_20_MU_SP 0
x_30_BR_CL 1
x_30_BR_BE 1
x_30_BR_NA 1
x_30_BR_SQ 1
x_30_BR_SP 0
x_30_BR_FR 0
x_34_YP_BE 1
x_34_YP_NA 1
x_34_YP_SQ 1
x_34_YP_FR 0
